(declare-fun temp486_1 () (_ BitVec 64))
(declare-fun temp486_2 () (_ BitVec 64))
(declare-fun temp486_3 () (_ BitVec 64))
(declare-fun ARGNAME_w_hh_NAMEEND_DIMSIZE
             ()
             (Array (_ BitVec 64) (_ BitVec 64)))
(declare-fun temp486_4 () (_ BitVec 64))
(declare-fun temp486_5 () (_ BitVec 64))
(declare-fun temp486_6 () (_ BitVec 64))
(declare-fun temp486_7 () (_ BitVec 64))
(declare-fun temp486_8 () (_ BitVec 64))
(declare-fun temp486_9 () (_ BitVec 64))
(declare-fun temp486_10 () (_ BitVec 64))
(declare-fun temp486_11 () (_ BitVec 64))
(declare-fun temp486_12 () (_ BitVec 64))
(declare-fun temp486_13 () (_ BitVec 64))
(declare-fun temp486_14 () (_ BitVec 64))
(declare-fun temp486_15 () (_ BitVec 64))
(declare-fun temp486_16 () (_ BitVec 64))
(declare-fun temp486_17 () (_ BitVec 64))
(declare-fun temp486_18 () (_ BitVec 64))
(declare-fun temp486_19 () (_ BitVec 64))
(declare-fun temp486_20 () (_ BitVec 64))
(declare-fun temp486_21 () (_ BitVec 64))
(declare-fun temp486_22 () (_ BitVec 64))
(declare-fun temp486_23 () (_ BitVec 64))
(declare-fun temp486_24 () (_ BitVec 64))
(declare-fun ARGNAME_input_NAMEEND_DIMSIZE
             ()
             (Array (_ BitVec 64) (_ BitVec 64)))
(declare-fun temp486_25 () (_ BitVec 64))
(declare-fun temp486_26 () (_ BitVec 64))
(declare-fun temp486_27 () (_ BitVec 64))
(declare-fun temp486_28 () (_ BitVec 64))
(declare-fun temp486_29 () (_ BitVec 64))
(declare-fun temp486_30 () (_ BitVec 64))
(declare-fun temp486_31 () (_ BitVec 64))
(declare-fun temp486_32 () (_ BitVec 64))
(declare-fun temp486_33 () (_ BitVec 64))
(declare-fun temp486_34 () (_ BitVec 64))
(declare-fun temp486_35 () (_ BitVec 64))
(declare-fun temp486_36 () (_ BitVec 64))
(declare-fun temp486_37 () (_ BitVec 64))
(declare-fun temp486_38 () (_ BitVec 64))
(declare-fun temp486_39 () (_ BitVec 64))
(declare-fun temp486_40 () (_ BitVec 64))
(declare-fun temp486_41 () (_ BitVec 64))
(declare-fun temp486_42 () (_ BitVec 64))
(declare-fun temp486_43 () (_ BitVec 64))
(declare-fun temp486_44 () (_ BitVec 64))
(declare-fun var404256 () (_ BitVec 64))
(declare-fun k!0 () (_ BitVec 64))
(declare-fun k!1 () (_ BitVec 64))
(declare-fun k!2 () Bool)
(declare-fun ARGNAME_w_hh_NAMEEND_DIM () (_ BitVec 64))
(declare-fun ARGNAME_input_NAMEEND_DIM () (_ BitVec 64))
(declare-fun temp486_45 () (_ BitVec 64))
(declare-fun temp486_46 () (_ BitVec 64))
(declare-fun ARGNAME_b_ih_NAMEEND_DIMSIZE
             ()
             (Array (_ BitVec 64) (_ BitVec 64)))
(declare-fun temp486_47 () (_ BitVec 64))
(declare-fun temp486_48 () (_ BitVec 64))
(declare-fun temp486_49 () (_ BitVec 64))
(declare-fun temp486_50 () (_ BitVec 64))
(declare-fun temp486_51 () (_ BitVec 64))
(declare-fun temp486_52 () (_ BitVec 64))
(declare-fun temp486_53 () (_ BitVec 64))
(declare-fun temp486_54 () (_ BitVec 64))
(declare-fun temp486_55 () (_ BitVec 64))
(declare-fun temp486_56 () (_ BitVec 64))
(declare-fun temp486_57 () (_ BitVec 64))
(declare-fun temp486_58 () (_ BitVec 64))
(declare-fun temp486_59 () (_ BitVec 64))
(declare-fun temp486_60 () (_ BitVec 64))
(declare-fun temp486_61 () (_ BitVec 64))
(declare-fun temp486_62 () (_ BitVec 64))
(declare-fun temp486_63 () (_ BitVec 64))
(declare-fun temp486_64 () (_ BitVec 64))
(declare-fun temp486_65 () (_ BitVec 64))
(declare-fun ARGNAME_b_ih_NAMEEND_DIM () (_ BitVec 64))
(declare-fun temp486_66 () (_ BitVec 64))
(declare-fun var65706 () (_ BitVec 64))
(declare-fun temp486_67 () (_ BitVec 64))
(declare-fun temp486_68 () (_ BitVec 64))
(declare-fun temp486_69 () (_ BitVec 64))
(declare-fun temp486_70 () (_ BitVec 64))
(declare-fun temp486_71 () (_ BitVec 64))
(declare-fun temp486_72 () (_ BitVec 64))
(declare-fun var68976 () (_ BitVec 64))
(declare-fun temp486_73 () (_ BitVec 64))
(declare-fun temp486_74 () (_ BitVec 64))
(declare-fun temp486_75 () (_ BitVec 64))
(declare-fun temp486_76 () (_ BitVec 64))
(declare-fun temp486_77 () (_ BitVec 64))
(declare-fun temp486_78 () (_ BitVec 64))
(declare-fun temp486_79 () (_ BitVec 64))
(declare-fun temp486_80 () (_ BitVec 64))
(declare-fun var2041840 () (_ BitVec 64))
(declare-fun temp486_81 () (_ BitVec 64))
(assert (= temp486_1 #x0000000000000000))
(assert (= temp486_2 temp486_1))
(assert (= temp486_3 (select ARGNAME_w_hh_NAMEEND_DIMSIZE temp486_2)))
(assert (= temp486_4 #x0000000000000001))
(assert (= temp486_5 temp486_4))
(assert (= temp486_6 (select ARGNAME_w_hh_NAMEEND_DIMSIZE temp486_5)))
(assert (= temp486_7 #x0000000000000002))
(assert (= temp486_8 temp486_7))
(assert (= temp486_9 (select ARGNAME_w_hh_NAMEEND_DIMSIZE temp486_8)))
(assert (= temp486_10 #x0000000000000003))
(assert (= temp486_11 temp486_10))
(assert (= temp486_12 (select ARGNAME_w_hh_NAMEEND_DIMSIZE temp486_11)))
(assert (= temp486_13 #x0000000000000004))
(assert (= temp486_14 temp486_13))
(assert (= temp486_15 (select ARGNAME_w_hh_NAMEEND_DIMSIZE temp486_14)))
(assert (= temp486_16 #x0000000000000005))
(assert (= temp486_17 temp486_16))
(assert (= temp486_18 (select ARGNAME_w_hh_NAMEEND_DIMSIZE temp486_17)))
(assert (= temp486_19 #x0000000000000001))
(assert (= temp486_20 temp486_19))
(assert (= temp486_21 (select ARGNAME_w_hh_NAMEEND_DIMSIZE temp486_20)))
(assert (bvsgt ARGNAME_w_hh_NAMEEND_DIM temp486_19))
(assert (bvsge temp486_19 (bvneg ARGNAME_w_hh_NAMEEND_DIM)))
(assert (= temp486_22 #x0000000000000000))
(assert (= temp486_23 temp486_22))
(assert (= temp486_24 (select ARGNAME_input_NAMEEND_DIMSIZE temp486_23)))
(assert (= temp486_25 #x0000000000000001))
(assert (= temp486_26 temp486_25))
(assert (= temp486_27 (select ARGNAME_input_NAMEEND_DIMSIZE temp486_26)))
(assert (= temp486_28 #x0000000000000002))
(assert (= temp486_29 temp486_28))
(assert (= temp486_30 (select ARGNAME_input_NAMEEND_DIMSIZE temp486_29)))
(assert (= temp486_31 #x0000000000000003))
(assert (= temp486_32 temp486_31))
(assert (= temp486_33 (select ARGNAME_input_NAMEEND_DIMSIZE temp486_32)))
(assert (= temp486_34 #x0000000000000004))
(assert (= temp486_35 temp486_34))
(assert (= temp486_36 (select ARGNAME_input_NAMEEND_DIMSIZE temp486_35)))
(assert (= temp486_37 #x0000000000000005))
(assert (= temp486_38 temp486_37))
(assert (= temp486_39 (select ARGNAME_input_NAMEEND_DIMSIZE temp486_38)))
(assert (= temp486_40 #x0000000000000001))
(assert (= temp486_41 temp486_40))
(assert (= temp486_42 (select ARGNAME_input_NAMEEND_DIMSIZE temp486_41)))
(assert (bvsgt ARGNAME_input_NAMEEND_DIM temp486_40))
(assert (bvsge temp486_40 (bvneg ARGNAME_input_NAMEEND_DIM)))
(assert (= temp486_43 temp486_21))
(assert (= var404256
   (ite (= temp486_42 temp486_43) #x0000000000000001 #x0000000000000000)))
(assert (= temp486_44 #x0000000000000001))
(assert (= var404256 temp486_44))
(assert (= temp486_45 #x0000000000000000))
(assert (= temp486_46 temp486_45))
(assert (= temp486_47 (select ARGNAME_b_ih_NAMEEND_DIMSIZE temp486_46)))
(assert (= temp486_48 #x0000000000000001))
(assert (= temp486_49 temp486_48))
(assert (= temp486_50 (select ARGNAME_b_ih_NAMEEND_DIMSIZE temp486_49)))
(assert (= temp486_51 #x0000000000000002))
(assert (= temp486_52 temp486_51))
(assert (= temp486_53 (select ARGNAME_b_ih_NAMEEND_DIMSIZE temp486_52)))
(assert (= temp486_54 #x0000000000000003))
(assert (= temp486_55 temp486_54))
(assert (= temp486_56 (select ARGNAME_b_ih_NAMEEND_DIMSIZE temp486_55)))
(assert (= temp486_57 #x0000000000000004))
(assert (= temp486_58 temp486_57))
(assert (= temp486_59 (select ARGNAME_b_ih_NAMEEND_DIMSIZE temp486_58)))
(assert (= temp486_60 #x0000000000000005))
(assert (= temp486_61 temp486_60))
(assert (= temp486_62 (select ARGNAME_b_ih_NAMEEND_DIMSIZE temp486_61)))
(assert (= temp486_63 #x0000000000000001))
(assert (= temp486_64 temp486_63))
(assert (= temp486_65 (select ARGNAME_b_ih_NAMEEND_DIMSIZE temp486_64)))
(assert (bvsgt ARGNAME_b_ih_NAMEEND_DIM temp486_63))
(assert (bvsge temp486_63 (bvneg ARGNAME_b_ih_NAMEEND_DIM)))
(assert (= temp486_66 #x0000000000000000))
(assert (= var65706 temp486_66))
(assert (= temp486_67 temp486_65))
(assert (= temp486_68 #x0000000000000000))
(assert (= temp486_69 temp486_68))
(assert (= temp486_70 (select ARGNAME_input_NAMEEND_DIMSIZE temp486_69)))
(assert (bvsgt ARGNAME_input_NAMEEND_DIM temp486_68))
(assert (bvsge temp486_68 (bvneg ARGNAME_input_NAMEEND_DIM)))
(assert (= temp486_71 temp486_67))
(assert (= temp486_72 #x0000000000000001))
(assert (= var68976 temp486_72))
(assert (= temp486_73 temp486_65))
(assert (= temp486_74 #x0000000000000000))
(assert (= temp486_75 temp486_74))
(assert (= temp486_76 (select ARGNAME_input_NAMEEND_DIMSIZE temp486_75)))
(assert (bvsgt ARGNAME_input_NAMEEND_DIM temp486_74))
(assert (bvsge temp486_74 (bvneg ARGNAME_input_NAMEEND_DIM)))
(assert (= temp486_77 temp486_73))
(assert (= temp486_78 #x0000000000000000))
(assert (= var65706 temp486_78))
(assert (= temp486_79 #x0000000000000001))
(assert (= var68976 temp486_79))
(assert (= temp486_80 #x0000000000000000))
(assert (= var2041840 temp486_80))
(assert (= temp486_81 #x0000000000000000))
(assert (= var2041840 temp486_81))
(model-add temp486_1 () (_ BitVec 64) #x0000000000000000)
(model-add temp486_2 () (_ BitVec 64) #x0000000000000000)
(model-add temp486_3
           ()
           (_ BitVec 64)
           (select ARGNAME_w_hh_NAMEEND_DIMSIZE #x0000000000000000))
(model-add temp486_4 () (_ BitVec 64) #x0000000000000001)
(model-add temp486_5 () (_ BitVec 64) #x0000000000000001)
(model-add temp486_6
           ()
           (_ BitVec 64)
           (select ARGNAME_w_hh_NAMEEND_DIMSIZE #x0000000000000001))
(model-add temp486_7 () (_ BitVec 64) #x0000000000000002)
(model-add temp486_8 () (_ BitVec 64) #x0000000000000002)
(model-add temp486_9
           ()
           (_ BitVec 64)
           (select ARGNAME_w_hh_NAMEEND_DIMSIZE #x0000000000000002))
(model-add temp486_10 () (_ BitVec 64) #x0000000000000003)
(model-add temp486_11 () (_ BitVec 64) #x0000000000000003)
(model-add temp486_12
           ()
           (_ BitVec 64)
           (select ARGNAME_w_hh_NAMEEND_DIMSIZE #x0000000000000003))
(model-add temp486_13 () (_ BitVec 64) #x0000000000000004)
(model-add temp486_14 () (_ BitVec 64) #x0000000000000004)
(model-add temp486_15
           ()
           (_ BitVec 64)
           (select ARGNAME_w_hh_NAMEEND_DIMSIZE #x0000000000000004))
(model-add temp486_16 () (_ BitVec 64) #x0000000000000005)
(model-add temp486_17 () (_ BitVec 64) #x0000000000000005)
(model-add temp486_18
           ()
           (_ BitVec 64)
           (select ARGNAME_w_hh_NAMEEND_DIMSIZE #x0000000000000005))
(model-add temp486_19 () (_ BitVec 64) #x0000000000000001)
(model-add temp486_20 () (_ BitVec 64) #x0000000000000001)
(model-add temp486_21
           ()
           (_ BitVec 64)
           (select ARGNAME_w_hh_NAMEEND_DIMSIZE #x0000000000000001))
(model-add temp486_22 () (_ BitVec 64) #x0000000000000000)
(model-add temp486_23 () (_ BitVec 64) #x0000000000000000)
(model-add temp486_24
           ()
           (_ BitVec 64)
           (select ARGNAME_input_NAMEEND_DIMSIZE #x0000000000000000))
(model-add temp486_25 () (_ BitVec 64) #x0000000000000001)
(model-add temp486_26 () (_ BitVec 64) #x0000000000000001)
(model-add temp486_27
           ()
           (_ BitVec 64)
           (select ARGNAME_input_NAMEEND_DIMSIZE #x0000000000000001))
(model-add temp486_28 () (_ BitVec 64) #x0000000000000002)
(model-add temp486_29 () (_ BitVec 64) #x0000000000000002)
(model-add temp486_30
           ()
           (_ BitVec 64)
           (select ARGNAME_input_NAMEEND_DIMSIZE #x0000000000000002))
(model-add temp486_31 () (_ BitVec 64) #x0000000000000003)
(model-add temp486_32 () (_ BitVec 64) #x0000000000000003)
(model-add temp486_33
           ()
           (_ BitVec 64)
           (select ARGNAME_input_NAMEEND_DIMSIZE #x0000000000000003))
(model-add temp486_34 () (_ BitVec 64) #x0000000000000004)
(model-add temp486_35 () (_ BitVec 64) #x0000000000000004)
(model-add temp486_36
           ()
           (_ BitVec 64)
           (select ARGNAME_input_NAMEEND_DIMSIZE #x0000000000000004))
(model-add temp486_37 () (_ BitVec 64) #x0000000000000005)
(model-add temp486_38 () (_ BitVec 64) #x0000000000000005)
(model-add temp486_39
           ()
           (_ BitVec 64)
           (select ARGNAME_input_NAMEEND_DIMSIZE #x0000000000000005))
(model-add temp486_40 () (_ BitVec 64) #x0000000000000001)
(model-add temp486_41 () (_ BitVec 64) #x0000000000000001)
(model-add temp486_42
           ()
           (_ BitVec 64)
           (select ARGNAME_input_NAMEEND_DIMSIZE #x0000000000000001))
(model-add temp486_43
           ()
           (_ BitVec 64)
           (select ARGNAME_w_hh_NAMEEND_DIMSIZE #x0000000000000001))
(model-add temp486_44 () (_ BitVec 64) #x0000000000000001)
(model-add var404256 () (_ BitVec 64) #x0000000000000001)
(model-del k!0)
(model-add ARGNAME_input_NAMEEND_DIMSIZE
           ()
           (Array (_ BitVec 64) (_ BitVec 64))
           ((as const (Array (_ BitVec 64) (_ BitVec 64))) k!0))
(model-del k!1)
(model-add ARGNAME_w_hh_NAMEEND_DIMSIZE
           ()
           (Array (_ BitVec 64) (_ BitVec 64))
           ((as const (Array (_ BitVec 64) (_ BitVec 64))) k!1))
(model-del k!2)
(model-add k!0 () (_ BitVec 64) (ite k!2 k!1 (bvnot k!1)))





